NAME : basic test 
COMMENT : 10 locations in Western Sahara
COMMENT : Derived from National Imagery and Mapping Agency data
TYPE : TSP
DIMENSION : 10
EDGE_WEIGHT_TYPE : EUC_2D
NODE_COORD_SECTION
1 20833.3333 17100.0000
2 20900.0000 17066.6667
3 21300.0000 13016.6667
4 21600.0000 14150.0000
5 21600.0000 14966.6667
6 21600.0000 16500.0000
7 22183.3333 13133.3333
8 22583.3333 14300.0000
9 22683.3333 12716.6667
10 23616.6667 15866.6667
EOF
